NAME          MPSDATA
ROWS
 L  C0      
 L  C1      
 L  C2      
 N  MINIMIZE
COLUMNS
    x0      C2        2.000000000000000   C1        3.000000000000000
    x0      C0        4.000000000000000
    x0      MINIMIZE  -1.000000000000000
    x1      C2        3.000000000000000   C1        4.000000000000000
    x1      C0        3.000000000000000
    x1      MINIMIZE  -1.100000000000000
RHS
    RHS     C0        10.000000000000000   C1        10.000000000000000
    RHS     C2        40.000000000000000
BOUNDS
ENDATA
